* ENCODING=ISO-8859-1
NAME          CPLEX
ROWS
 N  obj1    
 G  c1      
 G  c2      
 G  c3      
 G  c4      
 G  c5      
 G  c6      
 G  c7      
 G  c8      
 G  c9      
 G  c10     
 G  c11     
 G  c12     
 G  c13     
 G  c14     
 G  c15     
 G  c16     
 G  c17     
 G  c18     
 G  c19     
 G  c20     
 G  c21     
 G  c22     
 G  c23     
 G  c24     
 G  c25     
 G  c26     
 G  c27     
 G  c28     
 G  c29     
 G  c30     
 G  c31     
 G  c32     
 G  c33     
 G  c34     
 G  c35     
COLUMNS
    MARK0000  'MARKER'                 'INTORG'
    x1        obj1                            1
    x1        c8                            580
    x1        c13                           114
    x1        c20                           874
    x1        c26                           796
    x2        obj1                            1
    x2        c7                            665
    x2        c8                            863
    x2        c9                            886
    x2        c15                           839
    x2        c27                           973
    x2        c35                           176
    x3        obj1                            1
    x3        c11                           262
    x3        c13                           188
    x3        c23                           989
    x4        obj1                            1
    x4        c5                            657
    x4        c10                           489
    x4        c21                           681
    x5        obj1                            1
    x5        c7                            509
    x5        c10                           439
    x5        c30                           184
    x5        c31                           200
    x5        c35                           418
    x6        obj1                            1
    x6        c1                            849
    x6        c6                            708
    x6        c7                            291
    x6        c23                           490
    x6        c32                           688
    x7        obj1                            1
    x7        c16                           486
    x7        c18                           945
    x7        c30                           129
    x8        obj1                            1
    x8        c25                           358
    x8        c26                           399
    x8        c28                           874
    x9        obj1                            1
    x9        c1                            564
    x9        c20                           533
    x9        c23                           890
    x10       obj1                            1
    x10       c35                           980
    x11       obj1                            1
    x11       c2                            145
    x11       c3                            185
    x11       c4                            661
    x11       c9                            147
    x11       c11                           377
    x11       c26                           912
    x11       c28                           233
    x12       obj1                            1
    x12       c13                           216
    x12       c18                           935
    x12       c23                           175
    x12       c24                           167
    x12       c29                           547
    x12       c30                           498
    x13       obj1                            1
    x13       c8                            136
    x13       c9                            498
    x13       c25                           489
    x13       c32                           262
    x14       obj1                            1
    x14       c5                            898
    x14       c11                           610
    x14       c15                           764
    x14       c27                           562
    x15       obj1                            1
    x15       c10                           818
    x16       obj1                            1
    x16       c2                            429
    x16       c16                           249
    x16       c22                           492
    x16       c28                           514
    x16       c34                           332
    x17       obj1                            1
    x17       c16                           371
    x18       obj1                            1
    x18       c10                           268
    x18       c19                           813
    x18       c25                           162
    x18       c32                           565
    x19       obj1                            1
    x19       c16                           113
    x19       c34                           585
    x20       obj1                            1
    x20       c1                            268
    x20       c3                            235
    x20       c8                            113
    x20       c14                           820
    x20       c19                           193
    x20       c25                           629
    x21       obj1                            1
    x21       c28                           722
    x22       obj1                            1
    x22       c6                            467
    x22       c17                           988
    x23       obj1                            1
    x23       c2                            248
    x23       c22                           453
    x23       c34                           544
    x24       obj1                            1
    x24       c3                            715
    x24       c16                           896
    x24       c30                           112
    x25       obj1                            1
    x25       c6                            502
    x25       c13                           292
    x26       obj1                            1
    x26       c1                            932
    x26       c4                            841
    x26       c19                           219
    x26       c27                           849
    x27       obj1                            1
    x27       c6                            812
    x27       c13                           591
    x27       c23                           786
    x27       c24                           692
    x27       c32                           499
    x27       c35                           393
    x28       obj1                            1
    x28       c7                            926
    x28       c29                           767
    x28       c30                           431
    x29       obj1                            1
    x29       c1                            758
    x29       c18                           914
    x29       c19                           614
    x30       obj1                            1
    x30       c9                            507
    x30       c27                           973
    x30       c29                           317
    x31       obj1                            1
    x31       c3                            292
    x31       c10                           969
    x31       c11                           608
    x31       c12                           385
    x32       obj1                            1
    x32       c10                           206
    x32       c19                           180
    x32       c25                           885
    x33       obj1                            1
    x33       c8                            338
    x33       c19                           418
    x33       c26                           270
    x34       obj1                            1
    x34       c1                            880
    x34       c6                            196
    x34       c12                           750
    x34       c21                           713
    x34       c31                           458
    x34       c33                           595
    x35       obj1                            1
    x35       c6                            981
    x35       c12                           884
    x35       c14                           612
    x35       c25                           642
    x35       c30                           343
    x35       c32                           830
    x36       obj1                            1
    x36       c9                            393
    x36       c15                           602
    x36       c21                           328
    x37       obj1                            1
    x37       c19                           677
    x37       c23                           844
    x37       c32                           615
    x38       obj1                            1
    x38       c24                           746
    x38       c25                           977
    x39       obj1                            1
    x39       c21                           925
    x39       c23                           432
    x39       c28                           742
    x39       c33                           348
    x40       obj1                            1
    x40       c1                            854
    x40       c5                            190
    x40       c17                           364
    x40       c23                           212
    x40       c24                           834
    x41       obj1                            1
    x41       c8                            626
    x41       c19                           255
    x41       c21                           317
    x41       c32                           819
    x42       obj1                            1
    x42       c12                           271
    x42       c24                           610
    x43       obj1                            1
    x43       c7                            704
    x43       c25                           756
    x44       obj1                            1
    x44       c1                            678
    x44       c22                           102
    x44       c25                           655
    x45       obj1                            1
    x45       c2                            802
    x45       c13                           770
    x45       c18                           533
    x46       obj1                            1
    x46       c21                           149
    x47       obj1                            1
    x47       c15                           973
    x47       c24                           614
    x47       c30                           155
    x47       c35                           475
    x48       obj1                            1
    x48       c3                            732
    x48       c10                           343
    x48       c19                           183
    x48       c21                           421
    x48       c24                           256
    x48       c35                           284
    x49       obj1                            1
    x49       c20                           117
    x49       c30                           777
    x50       obj1                            1
    x50       c11                           958
    x50       c14                           824
    x50       c34                           822
    x51       obj1                            1
    x51       c6                            510
    x51       c14                           297
    x51       c28                           202
    x52       obj1                            1
    x52       c2                            619
    x52       c7                            297
    x52       c24                           720
    x52       c27                           786
    x52       c28                           432
    x52       c29                           444
    x53       obj1                            1
    x53       c2                            832
    x53       c3                            742
    x54       obj1                            1
    x54       c17                           765
    x55       obj1                            1
    x55       c4                            178
    x55       c17                           913
    x56       obj1                            1
    x56       c8                            555
    x56       c12                           698
    x56       c23                           493
    x56       c27                           103
    x57       obj1                            1
    x57       c4                            240
    x57       c9                            819
    x57       c14                           939
    x58       obj1                            1
    x58       c2                            715
    x58       c17                           789
    x58       c31                           238
    x59       obj1                            1
    x60       obj1                            1
    x60       c2                            402
    x60       c4                            279
    x60       c9                            756
    x60       c11                           358
    x60       c30                           691
    x61       obj1                            1
    x61       c9                            218
    x61       c10                           438
    x61       c13                           260
    x61       c23                           203
    x62       obj1                            1
    x62       c1                            408
    x62       c9                            447
    x62       c29                           793
    x62       c33                           325
    x63       obj1                            1
    x63       c22                           776
    x64       obj1                            1
    x64       c25                           612
    x65       obj1                            1
    x65       c5                            615
    x65       c6                            763
    x65       c10                           321
    x65       c13                           558
    x65       c20                           139
    x65       c35                           215
    x66       obj1                            1
    x66       c3                            570
    x66       c15                           725
    x66       c33                           968
    x67       obj1                            1
    x67       c1                            810
    x67       c11                           386
    x68       obj1                            1
    x68       c3                            992
    x68       c5                            912
    x68       c21                           367
    x68       c22                           418
    x69       obj1                            1
    x69       c14                           845
    x69       c30                           420
    x69       c31                           375
    x70       obj1                            1
    x70       c5                            776
    x70       c28                           780
    x70       c29                           129
    MARK0001  'MARKER'                 'INTEND'
RHS
    rhs       c1                           3501
    rhs       c2                           2096
    rhs       c3                           2232
    rhs       c4                           1100
    rhs       c5                           2024
    rhs       c6                           2470
    rhs       c7                           1696
    rhs       c8                           1606
    rhs       c9                           2336
    rhs       c10                          2146
    rhs       c11                          1780
    rhs       c12                          1494
    rhs       c13                          1495
    rhs       c14                          2169
    rhs       c15                          1952
    rhs       c16                          1058
    rhs       c17                          1910
    rhs       c18                          1664
    rhs       c19                          1776
    rhs       c20                           832
    rhs       c21                          1951
    rhs       c22                          1121
    rhs       c23                          2757
    rhs       c24                          2320
    rhs       c25                          3083
    rhs       c26                          1189
    rhs       c27                          2123
    rhs       c28                          2250
    rhs       c29                          1499
    rhs       c30                          1870
    rhs       c31                           636
    rhs       c32                          2139
    rhs       c33                          1118
    rhs       c34                          1142
    rhs       c35                          1471
BOUNDS
 LI bnd       x1        0
 LI bnd       x2        0
 LI bnd       x3        0
 LI bnd       x4        0
 LI bnd       x5        0
 LI bnd       x6        0
 LI bnd       x7        0
 LI bnd       x8        0
 LI bnd       x9        0
 LI bnd       x10       0
 LI bnd       x11       0
 LI bnd       x12       0
 LI bnd       x13       0
 LI bnd       x14       0
 LI bnd       x15       0
 LI bnd       x16       0
 LI bnd       x17       0
 LI bnd       x18       0
 LI bnd       x19       0
 LI bnd       x20       0
 LI bnd       x21       0
 LI bnd       x22       0
 LI bnd       x23       0
 LI bnd       x24       0
 LI bnd       x25       0
 LI bnd       x26       0
 LI bnd       x27       0
 LI bnd       x28       0
 LI bnd       x29       0
 LI bnd       x30       0
 LI bnd       x31       0
 LI bnd       x32       0
 LI bnd       x33       0
 LI bnd       x34       0
 LI bnd       x35       0
 LI bnd       x36       0
 LI bnd       x37       0
 LI bnd       x38       0
 LI bnd       x39       0
 LI bnd       x40       0
 LI bnd       x41       0
 LI bnd       x42       0
 LI bnd       x43       0
 LI bnd       x44       0
 LI bnd       x45       0
 LI bnd       x46       0
 LI bnd       x47       0
 LI bnd       x48       0
 LI bnd       x49       0
 LI bnd       x50       0
 LI bnd       x51       0
 LI bnd       x52       0
 LI bnd       x53       0
 LI bnd       x54       0
 LI bnd       x55       0
 LI bnd       x56       0
 LI bnd       x57       0
 LI bnd       x58       0
 LI bnd       x59       0
 LI bnd       x60       0
 LI bnd       x61       0
 LI bnd       x62       0
 LI bnd       x63       0
 LI bnd       x64       0
 LI bnd       x65       0
 LI bnd       x66       0
 LI bnd       x67       0
 LI bnd       x68       0
 LI bnd       x69       0
 LI bnd       x70       0
ENDATA
